NAME : tsp35_6.193.tour
COMMENT : Length = 193
COMMENT : Found by LKH [Keld Helsgaun]
TYPE : TOUR
DIMENSION : 35
TOUR_SECTION
1
5
12
28
13
7
33
6
8
4
25
15
10
9
30
32
24
11
27
3
29
17
31
20
26
35
23
19
18
22
2
16
34
14
21
-1
EOF
